predicate fzn_blackbox(array [int] of var int: int_input,array [int] of var float: float_input,array [int] of var int: int_output,array [int] of var float: float_output);
array [1..2] of int: X_INTRODUCED_4_ = [1,-1];
array [1..2] of int: X_INTRODUCED_5_ = [1,1];
var -4..4: x:: output_var;
var -4..4: y:: output_var;
var -100.0..100.0: obj:: output_var;
var 0..4: X_INTRODUCED_2_ ::var_is_introduced :: is_defined_var;
var 0..4: X_INTRODUCED_3_ ::var_is_introduced :: is_defined_var;
var -16..16: X_INTRODUCED_7_ ::var_is_introduced :: is_defined_var;
var 2..16: X_INTRODUCED_8_ ::var_is_introduced :: is_defined_var;
array [1..1] of var float: X_INTRODUCED_9_ ::var_is_introduced  = [obj];
array [1..2] of var int: X_INTRODUCED_10_ ::var_is_introduced  = [x,y];
constraint int_abs(x,X_INTRODUCED_2_):: defines_var(X_INTRODUCED_2_);
constraint int_abs(y,X_INTRODUCED_3_):: defines_var(X_INTRODUCED_3_);
constraint int_lin_ne(X_INTRODUCED_4_,[X_INTRODUCED_2_,X_INTRODUCED_3_],0);
constraint int_lin_le(X_INTRODUCED_5_,[X_INTRODUCED_2_,X_INTRODUCED_3_],6);
constraint int_abs(X_INTRODUCED_7_,X_INTRODUCED_8_):: defines_var(X_INTRODUCED_8_);
constraint fzn_blackbox(X_INTRODUCED_10_,[],[],X_INTRODUCED_9_):: blackbox_dll("./libbb_beast_search.so");
constraint int_times(x,y,X_INTRODUCED_7_):: defines_var(X_INTRODUCED_7_);
solve  minimize obj;
